110
Lattice="9.047430612956123 0.0 0.0 0.0 9.047430612956123 0.0 0.0 0.0 26.45886052872123" Properties=species:S:1:pos:R:3 pbc="T T T"
Mg      -0.01358734      -0.00003000      10.60210623
Mg       1.47773713       1.50970346      12.69732716
Mg      -0.00635125       0.00833126      14.85365855
Mg       1.52384865       1.50789035      16.94494606
Mg       1.50590296       1.48111777      21.27053584
Mg      -0.01245989       2.99488879      10.58361503
Mg       1.52692591       4.53923016      12.71655898
Mg      -0.03164149       2.97557839      14.84917191
Mg       1.51081451       4.52252935      17.00525180
Mg       0.02169072       3.00066457      19.10004704
Mg       1.48084592       4.52875216      21.28022214
Mg      -0.02093973       6.01198190      10.58594275
Mg       1.47567967       7.53157709      12.73653351
Mg       0.00425815       6.07219340      14.84134676
Mg       1.50808479       7.53385113      16.99777514
Mg      -0.01770180       6.04660115      19.13019720
Mg       1.48875231       7.57828627      21.22378232
Mg       3.02854617      -0.02766029      10.61564126
Mg       4.51237565       1.48310841      12.69653300
Mg       3.00990972       0.01557237      14.86291877
Mg       4.50611868       1.54758465      16.96202992
Mg       3.00689163       0.02578313      19.12389657
Mg       4.52461059       1.51436617      21.21252908
Mg       3.01800897       2.99135464      10.60932885
Mg       4.54671144       4.52686154      12.72288369
Mg       3.01393475       2.99891423      14.84775829
Mg       4.50201570       4.53418533      16.99459531
Mg       4.50967401       4.52196014      21.25665539
Mg       2.99669838       6.01758971      10.59456359
Mg       4.52507840       7.52686139      12.73475838
Mg       3.03136994       6.00646489      14.80126155
Mg       4.51679464       7.51598994      17.00429786
Mg       3.08168898       5.99502270      19.09966298
Mg       4.51836545       7.53028507      21.24704434
Mg       6.05209529      -0.01531821      10.57614799
Mg       7.53662435       1.49733168      12.71210390
Mg       6.00903756      -0.01545769      14.85948015
Mg       7.53055614       1.54150714      16.99401809
Mg       6.05422448      -0.01479849      19.11325859
Mg       7.53326341       1.55165137      21.21165050
Mg       6.03003990       3.02173645      10.57482668
Mg       7.56335989       4.49964855      12.71090095
Mg       6.04654798       2.99071511      14.83962041
Mg       7.55294089       4.52645048      17.00641035
Mg       6.04204816       2.98908401      19.07844709
Mg       7.51072812       4.52252033      21.23937030
Mg       6.00149522       6.04693557      10.57090223
Mg       7.55113625       7.55819722      12.69205506
Mg       6.04258665       6.03935100      14.83479046
Mg       7.55451792       7.56197466      17.03049193
Mg       7.50788029       7.55006519      21.26795142
Au       5.81608208       5.96799365       7.36424625
Au       3.11698646       6.09491485       7.40677686
O        1.49714803       1.51505462      10.59599769
O       -0.02975205       0.00571093      12.69971255
O        1.52203341       1.48207368      14.86957847
O        0.03397288      -0.01680853      16.99018291
O        1.55191360       1.51138425      19.15535593
O       -0.03736959       0.01063874      21.25946807
O        1.50726074       4.55603775      10.55633110
O       -0.01085370       3.01049253      12.77484899
O        1.50868297       4.52578802      14.82803357
O        0.00040793       3.02455977      16.95648792
O        1.49925043       4.50544990      19.12080207
O       -0.00514411       3.03344615      21.27065623
O        1.49246436       7.52606113      10.56329736
O       -0.01165401       6.02297697      12.71405908
O        1.51195915       7.54256322      14.83408860
O       -0.00847779       6.02709895      16.97537142
O        1.50669437       7.54101073      19.11708341
O       -0.00180011       6.03086830      21.22825649
O        4.50397780       1.48921565      10.59159236
O        3.02107774       0.01919411      12.67555024
O        4.49579749       1.52024666      14.84453680
O        3.03783479      -0.02194375      16.98560313
O        4.53686010       1.51727720      19.12023685
O        3.03054926       0.00199054      21.25801823
O        4.49508016       4.50781881      10.57969394
O        3.01049999       3.01110556      12.70559373
O        4.50284086       4.53103849      14.84859839
O        3.02641039       3.02647158      16.97515486
O        4.53376076       4.53731966      19.11808260
O        2.97323034       3.04064541      21.26212713
O        4.56985020       7.51331091      10.54791969
O        3.02631181       6.04709190      12.67797321
O        4.51412840       7.52892556      14.83431529
O        3.02923245       5.98936643      16.98038515
O        4.52902708       7.49444024      19.09701423
O        3.03656728       6.02705785      21.26073550
O        7.54557370       1.51307113      10.60670717
O        6.04208600      -0.01404260      12.74090321
O        7.55908656       1.51772927      14.84528718
O        6.04744168       0.00868168      16.96551953
O        7.52814484       1.52416871      19.09685760
O        6.05901319      -0.01012364      21.21103872
O        7.51565437       4.53710591      10.57668300
O        6.02698278       2.99890976      12.69776776
O        7.57175492       4.52944419      14.82893430
O        6.00967424       3.01924860      17.00471731
O        7.54271515       4.53898985      19.08388379
O        6.04410842       3.00219593      21.21988696
O        7.56151001       7.53115208      10.56269817
O        6.02704318       6.05483591      12.74508615
O        7.54543452       7.53350693      14.84720124
O        6.03943039       6.03186904      16.97569186
O        7.55395154       7.53165726      19.13045827
O        6.03824567       6.05553195      21.24579680
Al       0.04036302      -0.03155134      19.10234915
Al       3.00218491       2.98918236      19.14163906
Al       6.01085251       6.01835984      19.13788429
