POSCAR
   1.00000000000000
      9.047430612956123             0.0             0.0
      0.0             9.047430612956123             0.0
      0.0             0.0             26.45886052872123
   Mg    Au    O   Al
   51     2   54    3
Cartesian
-0.013587339	-3.00E-05	10.60210623
1.477737133	1.50970346	12.69732716
-0.00635125	0.008331259	14.85365855
1.523848649	1.50789035	16.94494606
1.505902961	1.481117772	21.27053584
-0.012459889	2.994888793	10.58361503
1.526925909	4.53923016	12.71655898
-0.031641488	2.975578394	14.84917191
1.51081451	4.522529352	17.0052518
0.021690718	3.000664572	19.10004704
1.480845922	4.528752161	21.28022214
-0.020939728	6.011981903	10.58594275
1.475679673	7.531577093	12.73653351
0.00425815	6.072193399	14.84134676
1.50808479	7.533851133	16.99777514
-0.017701799	6.046601151	19.1301972
1.488752312	7.57828627	21.22378232
3.02854617	-0.027660288	10.61564126
4.512375652	1.483108412	12.696533
3.009909721	0.015572369	14.86291877
4.506118683	1.547584648	16.96202992
3.006891632	0.025783128	19.12389657
4.524610591	1.51436617	21.21252908
3.018008971	2.991354643	10.60932885
4.54671144	4.526861541	12.72288369
3.013934751	2.998914232	14.84775829
4.502015703	4.534185331	16.99459531
4.509674012	4.521960142	21.25665539
2.996698382	6.017589713	10.59456359
4.525078401	7.526861394	12.73475838
3.03136994	6.006464894	14.80126155
4.516794642	7.515989944	17.00429786
3.081688976	5.995022695	19.09966298
4.518365452	7.530285073	21.24704434
6.05209529	-0.015318209	10.57614799
7.536624353	1.497331681	12.7121039
6.009037564	-0.015457689	14.85948015
7.530556143	1.541507138	16.99401809
6.05422448	-0.014798489	19.11325859
7.533263413	1.551651367	21.2116505
6.030039902	3.021736451	10.57482668
7.563359891	4.499648553	12.71090095
6.046547981	2.990715113	14.83962041
7.552940892	4.526450481	17.00641035
6.042048161	2.989084013	19.07844709
7.510728125	4.522520332	21.2393703
6.001495224	6.046935571	10.57090223
7.551136251	7.558197221	12.69205506
6.042586651	6.039351001	14.83479046
7.554517921	7.561974661	17.03049193
7.507880295	7.550065192	21.26795142
5.816082078	5.967993647	7.364246245
3.116986464	6.094914847	7.406776862
1.497148031	1.51505462	10.59599769
-0.029752048	0.00571093	12.69971255
1.522033409	1.482073682	14.86957847
0.033972878	-0.016808529	16.99018291
1.551913597	1.51138425	19.15535593
-0.037369587	0.010638739	21.25946807
1.507260741	4.556037749	10.5563311
-0.010853699	3.010492531	12.77484899
1.50868297	4.525788021	14.82803357
0.00040793	3.02455977	16.95648792
1.499250431	4.505449903	19.12080207
-0.00514411	3.03344615	21.27065623
1.492464362	7.526061134	10.56329736
-0.011654009	6.022976972	12.71405908
1.51195915	7.542563222	14.8340886
-0.008477789	6.027098952	16.97537142
1.506694371	7.541010732	19.11708341
-0.00180011	6.030868302	21.22825649
4.503977803	1.489215652	10.59159236
3.021077741	0.019194109	12.67555024
4.495797493	1.52024666	14.8445368
3.037834789	-0.021943748	16.98560313
4.536860101	1.5172772	19.12023685
3.03054926	0.00199054	21.25801823
4.495080164	4.507818813	10.57969394
3.010499991	3.011105561	12.70559373
4.502840863	4.531038491	14.84859839
3.02641039	3.02647158	16.97515486
4.533760761	4.53731966	19.1180826
2.973230344	3.040645409	21.26212713
4.569850198	7.513310914	10.54791969
3.02631181	6.047091901	12.67797321
4.514128402	7.528925563	14.83431529
3.02923245	5.989366435	16.98038515
4.529027081	7.494440236	19.09701423
3.036567279	6.027057852	21.2607355
7.545573702	1.51307113	10.60670717
6.042086001	-0.014042599	12.74090321
7.559086561	1.51772927	14.84528718
6.047441681	0.008681679	16.96551953
7.528144843	1.524168709	19.0968576
6.05901319	-0.010123639	21.21103872
7.515654374	4.537105911	10.576683
6.026982782	2.998909762	12.69776776
7.57175492	4.529444191	14.8289343
6.009674244	3.019248601	17.00471731
7.542715152	4.53898985	19.08388379
6.044108421	3.002195932	21.21988696
7.561510011	7.531152083	10.56269817
6.027043182	6.05483591	12.74508615
7.545434522	7.533506933	14.84720124
6.039430392	6.031869042	16.97569186
7.553951541	7.531657263	19.13045827
6.038245672	6.05553195	21.2457968
0.040363017	-0.031551338	19.10234915
3.002184912	2.989182363	19.14163906
6.010852513	6.018359843	19.13788429

